17989 1479
39787 17301
6618 46126
57374 19805
6868 42153
37160 28240
14820 11920
7708 17020
13969 50679
6809 34847
24605 24563
4010 29943
36191 47427
62404 59446
13036 12713
53742 61913
39438 1803
7172 55490
5721 16531
60772 19623
33708 36222
55733 7826
21614 15516
41824 53154
62708 36086
45672 6604
53544 14740
15485 12612
9235 18979
2072 62780
27832 41309
23589 37816
28049 52874
61951 57792
25074 15617
32763 50106
14504 8707
36593 40378
15863 43186
28475 51390
16131 43952
23587 40012
437 7554
36029 48111
30305 53927
38160 27476
16023 16206
34468 50190
27038 29902
17432 260
61190 747
49518 61957
29440 54844
12011 55966
3985 64986
47995 52736
37245 54216
48336 17125
53758 39880
53725 53332
